
-15.7
-15.2
-14.6
-13.8
-12.2
-10.9
-8.8
-7.9
-6.4
-5.6
-5.2
-4.7
-3.9
-3.5
-3.2
-3.1
-2.9
-2.9
-2.9
-2.8
-2.8
-2.7
-2.7
-2.7
-2.7
-2.7
-2.6
-2.6
-2.6
-2.6
-2.5
-2.4
-2.4
-2.4
-2.4
-2.4
-2.4
-2.4
-2.4
-2.4
-2.4
-2.4
-2.4
-2.4
-2.4
-2.4
-2.4
-2.4
-2.4
-2.4
-2.4